\ Model navie_copy
\ LP format - for model browsing. Use MPS format to capture full model detail.
\ Signature: 0xe7a56386a108b9c8
Maximize
 
Subject To
 constraints_2_1[0]: var_vehicle[0,0] + var_vehicle[0,1] + var_vehicle[0,2]
   = 0
 constrain_3_2_2_vehicle_0: var_vehicle[0,1] = 1
Bounds
Binaries
 var_vehicle[0,0] var_vehicle[0,1] var_vehicle[0,2]
End
